15
1 0 13
2 0 10
2 1 1
3 0 10
3 1 13
3 2 9
4 0 11
4 1 8
4 2 13
4 3 6
5 0 7
5 1 9
5 2 9
5 3 11
5 4 4
6 0 3
6 1 11
6 2 2
6 3 11
6 4 9
6 5 5
7 0 6
7 1 1
7 2 5
7 3 8
7 4 9
7 5 8
7 6 13
8 0 4
8 1 2
8 2 12
8 3 4
8 4 3
8 5 2
8 6 10
8 7 6
9 0 9
9 1 5
9 2 7
9 3 2
9 4 2
9 5 13
9 6 5
9 7 5
9 8 10
10 0 11
10 1 10
10 2 11
10 3 8
10 4 6
10 5 7
10 6 5
10 7 9
10 8 9
10 9 5
11 0 10
11 1 13
11 2 6
11 3 10
11 4 2
11 5 5
11 6 3
11 7 9
11 8 8
11 9 6
11 10 1
12 0 10
12 1 10
12 2 6
12 3 1
12 4 4
12 5 11
12 6 10
12 7 7
12 8 4
12 9 10
12 10 6
12 11 7
13 0 2
13 1 9
13 2 4
13 3 10
13 4 6
13 5 13
13 6 10
13 7 3
13 8 2
13 9 7
13 10 6
13 11 4
13 12 10
14 0 4
14 1 11
14 2 7
14 3 10
14 4 11
14 5 5
14 6 13
14 7 3
14 8 3
14 9 12
14 10 3
14 11 12
14 12 2
14 13 11
